Set parameter TokenServer to value "hpc-licenses.hpcc.usc.edu"
Set parameter TimeLimit to value 3600
Gurobi Optimizer version 9.5.1 build v9.5.1rc2 (linux64)
Thread count: 20 physical cores, 20 logical processors, using up to 20 threads
Optimize a model with 6007 rows, 4529 columns and 24534 nonzeros
Model fingerprint: 0xa9b7983d
Variable types: 4506 continuous, 23 integer (23 binary)
Coefficient statistics:
  Matrix range     [1e+00, 1e+00]
  Objective range  [2e-03, 1e+00]
  Bounds range     [1e+00, 1e+00]
  RHS range        [1e+00, 5e+01]
Found heuristic solution: objective 256.0502647
Presolve removed 1514 rows and 1511 columns
Presolve time: 0.08s
Presolved: 4493 rows, 3018 columns, 21993 nonzeros
Variable types: 2998 continuous, 20 integer (20 binary)

Root relaxation: objective 2.591318e+02, 2679 iterations, 0.12 seconds (0.12 work units)

    Nodes    |    Current Node    |     Objective Bounds      |     Work
 Expl Unexpl |  Obj  Depth IntInf | Incumbent    BestBd   Gap | It/Node Time

     0     0  259.13178    0    4  256.05026  259.13178  1.20%     -    0s
     0     0  258.97558    0    4  256.05026  258.97558  1.14%     -    0s
H    0     0                     258.9010023  258.97558  0.03%     -    0s

Cutting planes:
  Gomory: 3
  MIR: 106
  RLT: 15

Explored 1 nodes (3066 simplex iterations) in 0.49 seconds (0.32 work units)
Thread count was 20 (of 20 available processors)

Solution count 2: 258.901 256.05 

Optimal solution found (tolerance 1.00e-04)
Best objective 2.589010023147e+02, best bound 2.589010023147e+02, gap 0.0000%



#########node  1
V1.9
#########node  2
0.05660377358490566,0.9433962264150944
#########node  3
1.0,0.0


Total Solving Time 0.8980720043182373
obj value 258.9010023146815
Policy Regret train (Sum) 1.515319924254638
Best Treatment Found train (%) 88.8
treatment classification acc train (%) 51.2
Policy Regret test (Sum) 145.29074060878332
Best Treatment Found test (%) 59.919999999999995
treatment classification acc test (%) 49.51
